3 
4 
5  11 27 42 57 
6  13 23 28 33 38 43 48 53 58 
7  03 08 13 18 23 28 33 38 43 48 53 58 
8  03 08 13 18 23 28 33 38 43 48 53 58 
9  03 08 13 18 23 28 33 38 44 50 58 
10  05 13 20 28 35 43 50 58 
11  05 13 20 28 35 43 50 58 
12  05 13 20 28 35 43 50 58 
13  05 13 20 27 35 43 50 58 
14  05 13 20 27 35 43 50 58 
15  03 08 12 18 23 28 33 38 42 48 53 57 
16  03 08 12 18 23 27 33 38 42 48 53 57 
17  03 08 12 18 23 27 33 38 42 48 53 58 
18  03 08 13 18 23 28 33 38 43 48 54 
19  00 06 13 20 28 35 43 50 58 
20  04 11 19 27 34 45 
21  00 07 15 30 45 
22  00 10 25 40 56 
23  11 
0 
